p cnf 2693 2449
c ind 1261 1262 1263 1264 1265 1266 1267 1268 1269 1270 0
c ind 1271 1272 1273 1274 1275 1276 1277 1278 1279 1280 0
c ind 1281 1282 1283 1284 1285 1286 1287 1288 1289 1290 0
c ind 1291 1292 1293 1294 1295 1296 1297 1298 1299 1300 0
c ind 1301 1302 1303 1304 1305 1306 1307 1308 1309 1310 0
c ind 1311 1312 1313 1314 1315 1316 1317 1318 1319 1320 0
c ind 1321 1322 1323 1324 1325 1326 1327 1328 1329 1330 0
c ind 1331 1332 1333 1334 1335 1336 1337 1338 1339 1340 0
c ind 1341 1342 1343 1344 1345 1346 1347 1348 1349 1350 0
c ind 1351 1352 1353 1354 1355 1356 1357 1358 1359 1360 0
c ind 1361 1362 1363 1364 1365 1366 1367 1368 1369 1370 0
c ind 1371 1372 1373 1374 1375 1376 1377 1378 1379 1380 0
c ind 1381 1382 1383 1384 1385 1386 1387 1388 1389 1390 0
c ind 1391 1392 1393 1394 1395 1396 1397 1398 1399 1400 0
c ind 1401 1402 1403 1404 1405 1406 1407 1408 1409 1410 0
c ind 1411 1412 1413 1414 1415 1416 1417 1418 1419 1420 0
c ind 1421 1422 1423 1424 1425 1426 852 1427 1428 1097 0
c ind 1098 1016 1017 1018 1019 1020 1021 1022 1023 1024 0
c ind 1025 1026 1027 1028 1029 1030 1031 1032 1033 1034 0
c ind 1429 1430 1035 1036 1431 1432 1037 1166 1167 1168 0
c ind 1169 1170 1171 1172 1173 1174 1175 1176 1177 1178 0
c ind 853 1179 1180 1433 1181 1434 1182 1183 1435 1184 0
c ind 1436 1185 1186 1187 806 807 808 809 810 811 0
c ind 812 813 1437 814 815 816 817 818 1438 819 0
c ind 820 1439 821 822 1440 823 1441 824 825 826 0
c ind 827 855 856 857 858 859 860 861 862 863 0
c ind 1442 864 854 865 866 1443 867 1444 868 869 0
c ind 870 1445 871 1446 872 873 874 875 876 828 0
c ind 829 830 831 832 833 834 835 836 837 838 0
c ind 839 840 1447 841 1448 842 843 844 1449 1450 0
c ind 845 846 847 848 849 850 851 761 762 763 0
c ind 1451 764 1094 765 766 767 768 769 770 1452 0
c ind 771 1453 772 773 1454 1455 774 775 776 777 0
c ind 778 779 780 781 1456 782 1457 783 784 785 0
c ind 1458 786 787 788 789 790 791 792 793 794 0
c ind 795 796 797 798 799 1459 800 801 802 803 0
c ind 1460 804 1461 805 1462 1099 1463 1100 1101 1102 0
c ind 1103 1104 1105 1106 1107 1108 1109 1110 1111 1112 0
c ind 1113 1114 1115 1116 1117 1118 1119 1120 1121 1122 0
c ind 1123 1124 1125 1126 1127 1128 1095 1129 1130 1131 0
c ind 1132 1133 1134 1135 1136 1137 1138 1139 1140 1141 0
c ind 1142 1143 1144 1145 1146 1147 1148 1149 1150 1151 0
c ind 1152 1153 1154 1155 1156 1157 1158 1159 1160 1161 0
c ind 1162 1163 1164 1165 1188 1189 1096 1190 1191 1192 0
c ind 1193 1194 1195 1196 1197 1198 1199 1200 1201 1202 0
c ind 1203 1204 1205 1206 1207 1208 1209 1210 1211 1212 0
c ind 1213 1214 1215 1216 1217 1218 1219 1220 1221 1222 0
c ind 1223 1224 1225 1226 1227 1228 1229 1230 1231 1232 0
c ind 1233 1234 1235 1236 1237 1238 1239 1240 1241 1242 0
c ind 1243 1244 1245 1246 1247 1248 1249 1250 1251 1252 0
c ind 1253 1254 1255 1256 1257 1258 1259 1260 0
614 -615 725 0
614 -615 643 0
-614 615 0
-643 -725 -614 0
615 -616 -630 -642 0
-615 616 0
-615 630 0
-615 642 0
616 617 -621 0
-616 -617 0
-616 621 0
-618 -1168 617 0
-620 -1168 617 0
-619 -1168 617 0
-617 1168 0
-617 618 619 620 0
618 -1174 1175 1176 0
-618 1174 0
-618 -1176 0
-618 -1175 0
619 1174 1177 1178 0
-619 -1174 0
-619 -1178 0
-619 -1177 0
620 -1169 1170 1171 0
-620 1169 0
-620 -1171 0
-620 -1170 0
621 622 626 -812 -867 0
-621 867 0
-621 -626 0
-621 812 0
-621 -622 0
623 868 622 869 870 0
-622 -623 0
-622 -870 0
-622 -868 0
-622 -869 0
623 624 -873 0
623 624 625 -874 0
-623 -624 0
-623 -625 873 0
-623 873 874 0
624 871 -872 0
-624 -871 0
-624 872 0
625 830 831 0
625 830 838 839 0
-625 -830 0
-625 -831 -838 0
-625 -831 -839 0
627 813 626 814 815 0
-626 -627 0
-626 -815 0
-626 -813 0
-626 -814 0
627 628 -818 0
627 628 629 -819 0
-627 -628 0
-627 -629 818 0
-627 818 819 0
628 816 -817 0
-628 -816 0
-628 817 0
629 824 825 0
629 824 859 860 0
-629 -824 0
-629 -825 -859 0
-629 -825 -860 0
630 631 634 -637 0
630 631 635 -637 0
-630 -631 0
-630 637 0
-634 -635 -630 0
-632 -633 631 -1119 0
-632 -633 631 -1120 0
-631 633 0
-631 632 0
-631 1119 1120 0
632 1122 1123 1124 1125 0
-632 -1125 0
-632 -1124 0
-632 -1122 0
-632 -1123 0
633 -1116 -1117 -1118 1121 0
-633 1118 0
-633 -1121 0
-633 1116 0
-633 1117 0
634 -1130 -1137 0
-634 1130 0
-634 1137 0
635 -636 -1138 1139 0
-635 1138 0
-635 -1139 0
-635 636 0
636 1141 -1142 -1143 1144 0
-636 -1141 0
-636 -1144 0
-636 1143 0
-636 1142 0
637 -638 852 0
637 -638 641 0
-637 638 0
-641 -852 -637 0
638 -639 -640 -1246 -1275 0
-638 640 0
-638 1246 0
-638 639 0
-638 1275 0
639 -1304 -1333 -1362 -1391 0
-639 1391 0
-639 1304 0
-639 1362 0
-639 1333 0
640 -1188 -1217 0
-640 1188 0
-640 1217 0
641 795 796 797 0
-641 -795 0
-641 -797 0
-641 -796 0
642 -1094 -1095 0
642 -854 1096 0
642 -854 -1095 0
642 -1094 1096 0
1095 -1096 -642 0
854 1094 -642 0
643 -644 -687 -717 -1081 0
643 -644 -687 717 1081 0
-643 644 0
-643 -717 1081 0
-643 687 0
-643 717 -1081 0
644 645 663 673 1072 0
644 645 663 -673 -1072 0
-644 -645 0
-644 -673 1072 0
-644 -663 0
-644 673 -1072 0
645 646 -1089 0
-645 1089 0
-645 -646 0
646 -647 -638 0
646 661 -638 0
638 -646 0
-646 647 -661 0
647 -648 -660 -1463 0
647 648 -649 -660 0
-647 660 0
-647 -648 1463 0
-647 648 649 0
648 1161 -1163 0
-648 -1161 0
-648 1163 0
649 -650 -1462 0
649 650 -651 0
-649 -650 1462 0
-649 650 651 0
650 1133 -1135 0
-650 -1133 0
-650 1135 0
651 652 631 659 0
651 652 631 -656 0
-631 -651 0
-651 -652 0
-651 656 -659 0
652 654 852 -1109 0
652 653 852 1109 0
-652 -852 0
-652 -654 -1109 0
-652 -653 1109 0
653 -1459 -616 0
-653 1459 0
616 -653 0
654 -655 -1460 0
-653 654 655 0
-654 -655 1460 0
653 -654 655 0
655 782 -784 0
-655 -782 0
-655 784 0
-654 656 -657 0
654 -656 0
-656 657 0
657 658 -795 0
657 658 -796 0
657 658 -797 0
-657 -658 0
-657 795 796 797 0
658 803 -805 0
-658 -803 0
-658 805 0
658 659 -852 0
659 -852 1461 0
-659 852 0
-658 -659 -1461 0
660 -1130 1137 0
-660 1130 0
-660 -1137 0
661 662 -1130 0
649 651 661 0
651 661 662 0
649 661 -1130 0
-651 -661 1130 0
-649 -661 -662 0
635 662 -1130 -1137 0
-662 1130 0
-662 1137 0
-635 -662 0
663 -664 1469 0
663 664 -1469 0
-663 -664 -1469 0
-663 664 1469 0
664 -665 -638 0
664 672 -638 0
638 -664 0
-664 665 -672 0
648 -660 665 -666 0
-648 -660 665 -1432 0
660 -665 0
648 -665 666 0
-648 -665 1432 0
-650 666 -1431 0
650 666 -667 0
-650 -666 1431 0
650 -666 667 0
667 670 631 0
667 -668 -616 631 0
-631 -667 0
616 -667 -670 0
-667 668 -670 0
668 669 852 -1096 0
-657 668 669 -1096 0
-668 1096 0
-668 -669 0
657 -668 -852 0
-655 669 -1109 0
-655 669 -852 0
655 -669 0
-669 852 1109 0
670 671 1430 0
658 670 671 0
670 671 852 0
-670 -671 0
-658 -670 -852 -1430 0
-669 671 852 -1429 0
-657 -669 671 -1429 0
669 -671 0
-671 1429 0
657 -671 -852 0
666 672 -1130 0
662 667 672 0
666 667 672 0
662 672 -1130 0
-662 -666 -672 0
-667 -672 1130 0
673 684 -638 0
673 674 -638 -677 0
638 -673 0
-673 -674 -684 0
-673 677 -684 0
674 676 852 -1109 0
674 675 852 1109 0
-674 -852 0
-674 -676 -1109 0
-674 -675 1109 0
675 -1442 -616 0
-675 1442 0
616 -675 0
-655 676 -1443 0
655 -675 676 0
-655 -676 1443 0
655 675 -676 0
677 678 -679 0
-657 -676 677 -679 0
-677 679 0
676 -677 -678 0
657 -677 -678 0
658 678 -852 0
678 -852 1444 0
-678 852 0
-658 -678 -1444 0
679 680 631 0
-631 -679 0
-679 -680 0
-650 680 -1130 0
680 681 -1130 0
-680 1130 0
650 -680 -681 0
681 682 683 0
636 681 682 -1130 0
-681 -682 0
-681 -683 1130 0
-636 -681 -683 0
-648 682 1137 0
-682 -1137 0
648 -682 0
683 -1137 -1138 1139 0
-683 1137 0
-683 1138 0
-683 -1139 0
648 684 685 0
660 684 685 0
684 685 1446 0
-684 -685 0
-648 -660 -684 -1446 0
-650 685 -686 -1445 0
-685 1445 0
650 -685 0
-685 686 0
-681 686 -1130 0
-686 1130 0
681 -686 0
687 -716 -688 1052 0
687 716 -688 -1052 0
-687 688 0
-687 -716 -1052 0
-687 716 1052 0
688 -698 -689 0
-688 689 0
-688 698 0
689 -638 -690 0
689 -638 697 0
638 -689 0
690 -697 -689 0
648 -660 690 -691 0
-648 -660 690 -1436 0
660 -690 0
648 -690 691 0
-648 -690 1436 0
-650 691 -1435 0
650 691 -692 0
-650 -691 1435 0
650 -691 692 0
692 693 631 696 0
692 693 631 -695 0
-631 -692 0
-692 -693 0
-692 695 -696 0
693 694 852 -1109 0
616 693 852 1109 0
-693 -852 0
-693 -694 -1109 0
-693 1109 -616 0
655 694 -616 0
-655 694 -1433 0
616 655 -694 0
-655 -694 1433 0
-657 -694 695 0
657 -695 0
694 -695 0
658 696 -852 0
696 -852 1434 0
-696 852 0
-658 -696 -1434 0
691 697 -1130 0
662 692 697 0
691 692 697 0
662 697 -1130 0
-662 -691 -697 0
-692 -697 1130 0
698 -699 -706 0
698 701 -704 -706 0
-698 706 0
699 -701 -698 0
699 704 -698 0
-650 699 -1130 0
699 -700 -1130 0
-699 1130 0
650 -699 700 0
-648 700 1137 -1450 0
648 -700 0
-700 1450 0
-700 -1137 0
701 703 852 -1109 0
701 702 852 1109 0
-701 -852 0
-701 -703 -1109 0
-701 -702 1109 0
702 -1095 -616 0
-702 1095 0
616 -702 0
-655 703 -1447 0
655 -702 703 0
-655 -703 1447 0
655 702 -703 0
704 705 631 0
-657 -703 631 704 0
-631 -704 0
657 -704 -705 0
703 -704 -705 0
658 705 -852 0
705 -852 1448 0
-705 852 0
-658 -705 -1448 0
706 -707 -709 -714 0
706 707 -711 -714 0
-706 714 0
-707 709 -706 0
707 711 -706 0
707 851 -852 0
707 708 851 0
707 851 -1109 0
-707 -851 0
-707 -708 852 1109 0
708 1110 1111 1112 1113 0
-708 -1113 0
-708 -1112 0
-708 -1110 0
-708 -1111 0
709 -1428 -1458 0
709 710 -1458 0
-709 1458 0
-709 -710 1428 0
710 -1420 -621 1422 0
-710 1420 0
-710 -1422 0
621 -710 0
711 713 -621 -1426 0
711 712 -621 713 0
621 -711 0
-711 -713 0
-711 -712 1426 0
712 -1420 1422 0
-712 1420 0
-712 -1422 0
-617 713 1420 0
713 1019 1420 1457 0
-713 -1420 0
-713 -1019 617 0
-713 -1457 617 0
-700 714 -630 0
680 714 -630 0
714 -715 -630 0
630 -714 0
-680 700 -714 715 0
-681 715 -1449 0
-715 1449 0
681 -715 0
-710 716 -630 0
630 -716 0
710 -716 0
717 723 -638 0
717 718 -638 -721 0
638 -717 0
-717 -718 -723 0
-717 721 -723 0
718 720 852 -1109 0
718 719 852 1109 0
-718 -852 0
-718 -720 -1109 0
-718 -719 1109 0
719 -1451 -616 0
-719 1451 0
616 -719 0
-655 720 -1452 0
655 -719 720 0
-655 -720 1452 0
655 719 -720 0
-679 721 722 0
-657 -679 -720 721 0
679 -721 0
657 -721 -722 0
720 -721 -722 0
658 722 -852 0
722 -852 1453 0
-722 852 0
-658 -722 -1453 0
648 723 724 0
660 723 724 0
723 724 1455 0
-723 -724 0
-648 -660 -723 -1455 0
-650 -686 724 -1454 0
-724 1454 0
650 -724 0
686 -724 0
725 -726 736 -1067 0
725 726 736 1067 0
-725 -736 0
-725 726 -1067 0
-725 -726 1067 0
726 -727 -638 0
726 735 -638 0
638 -726 0
-726 727 -735 0
648 -660 727 -728 0
-648 -660 727 -1441 0
660 -727 0
648 -727 728 0
-648 -727 1441 0
-650 728 -1440 0
650 728 -729 0
-650 -728 1440 0
650 -728 729 0
729 730 631 734 0
729 730 631 -733 0
-631 -729 0
-729 -730 0
-729 733 -734 0
730 732 852 -1109 0
730 731 852 1109 0
-730 -852 0
-730 -732 -1109 0
-730 -731 1109 0
731 -1437 -616 0
-731 1437 0
616 -731 0
-655 732 -1438 0
655 -731 732 0
-655 -732 1438 0
655 731 -732 0
-657 -732 733 0
657 -733 0
732 -733 0
658 734 -852 0
734 -852 1439 0
-734 852 0
-658 -734 -1439 0
728 735 -1130 0
662 729 735 0
728 729 735 0
662 735 -1130 0
-662 -728 -735 0
-729 -735 1130 0
-646 736 1089 0
-736 -1089 0
646 -736 0
744 -615 737 0
738 -615 737 0
615 -737 0
-737 -738 -744 0
738 -689 -739 1902 0
-646 738 -689 -739 0
-738 739 0
689 -738 0
646 -1902 -738 0
664 739 740 -741 2282 0
-664 739 740 -741 -2282 0
-739 -740 0
-664 2282 -739 0
-739 741 0
664 -2282 -739 0
717 -1894 740 0
-740 1894 0
-717 -740 0
673 741 -742 743 1885 0
-673 741 -742 743 -1885 0
-741 -743 0
673 -1885 -741 0
-741 742 0
-673 1885 -741 0
-716 742 -698 1865 0
716 742 -698 -1865 0
698 -742 0
-716 -1865 -742 0
716 1865 -742 0
-717 1894 743 0
-743 -1894 0
717 -743 0
646 -726 744 -1880 0
726 744 1880 -1902 0
-726 744 -1880 -1902 0
646 726 744 1880 0
-726 1880 -744 0
726 -1880 -744 0
-646 1902 -744 0
-726 745 -615 0
643 745 -615 0
-736 745 -615 0
615 -745 0
-643 726 736 -745 0
-717 746 -615 0
746 747 -615 0
644 746 -615 0
615 -746 0
-644 717 -746 -747 0
-687 736 747 0
687 -747 0
-736 -747 0
-673 748 -615 0
748 749 -615 0
-736 748 -615 0
615 -748 0
673 736 -748 -749 0
645 749 -750 0
-645 -749 0
-749 750 0
663 -687 750 0
-663 -750 0
687 -750 0
-646 751 -615 0
750 751 -615 0
615 -751 0
646 -750 -751 0
-664 752 -615 0
687 752 -615 0
615 -752 0
664 -687 -752 0
716 753 -615 0
688 753 -615 0
615 -753 0
-716 -753 -688 0
688 754 -615 0
615 -754 0
-688 -754 0
726 755 -615 0
643 755 -615 0
-736 755 -615 0
615 -755 0
-643 -726 736 -755 0
747 756 -615 0
644 756 -615 0
717 756 -615 0
615 -756 0
-644 -717 -747 -756 0
-736 757 -615 0
749 757 -615 0
673 757 -615 0
615 -757 0
-673 736 -749 -757 0
750 758 -615 0
646 758 -615 0
615 -758 0
-646 -750 -758 0
687 759 -615 0
664 759 -615 0
615 -759 0
-664 -687 -759 0
-716 760 -615 0
688 760 -615 0
615 -760 0
716 -760 -688 0
1 614 0
-1 -614 0
2 614 0
-2 -614 0
3 737 0
-3 -737 0
89 -745 0
-89 745 0
90 -746 0
-90 746 0
91 -748 0
-91 748 0
92 -751 0
-92 751 0
97 -752 0
-97 752 0
110 -753 0
-110 753 0
210 -754 0
-210 754 0
394 -755 0
-394 755 0
395 -756 0
-395 756 0
396 -757 0
-396 757 0
397 -758 0
-397 758 0
402 -759 0
-402 759 0
415 -760 0
-415 760 0
515 -754 0
-515 754 0
-89 -394 2473 0
89 -2473 0
394 -2473 0
89 -1067 0
-89 1067 0
-90 -395 2474 0
90 -2474 0
395 -2474 0
90 -1081 0
-90 1081 0
-91 -396 2475 0
91 -2475 0
396 -2475 0
91 -1072 0
-91 1072 0
-92 -397 2476 0
92 -2476 0
397 -2476 0
92 -1089 0
-92 1089 0
-97 -402 2481 0
97 -2481 0
402 -2481 0
97 -1469 0
-97 1469 0
-110 -415 2494 0
110 -2494 0
415 -2494 0
110 -1052 0
-110 1052 0
-210 -515 2594 0
210 -2594 0
515 -2594 0
210 -886 0
-210 886 0
-1 0
-2 0
3 0
4 0
5 0
6 0
7 0
8 0
9 0
10 0
11 0
12 0
13 0
14 0
15 0
16 0
17 0
18 0
19 0
20 0
21 0
22 0
23 0
24 0
25 0
26 0
27 0
28 0
29 0
30 0
31 0
32 0
33 0
34 0
35 0
36 0
37 0
38 0
39 0
40 0
41 0
42 0
43 0
44 0
45 0
46 0
47 0
48 0
49 0
50 0
51 0
52 0
53 0
54 0
55 0
56 0
57 0
58 0
59 0
60 0
61 0
62 0
63 0
64 0
65 0
66 0
67 0
68 0
69 0
70 0
71 0
72 0
73 0
74 0
75 0
76 0
77 0
78 0
79 0
80 0
81 0
82 0
83 0
84 0
85 0
86 0
87 0
88 0
93 0
94 0
95 0
96 0
98 0
99 0
100 0
101 0
102 0
103 0
104 0
105 0
106 0
107 0
108 0
109 0
111 0
112 0
113 0
114 0
115 0
116 0
117 0
118 0
119 0
120 0
121 0
122 0
123 0
124 0
125 0
126 0
127 0
128 0
129 0
130 0
131 0
132 0
133 0
134 0
135 0
136 0
137 0
138 0
139 0
140 0
141 0
142 0
143 0
144 0
145 0
146 0
147 0
148 0
149 0
150 0
151 0
152 0
153 0
154 0
155 0
156 0
-157 0
158 0
159 0
160 0
161 0
162 0
163 0
164 0
165 0
166 0
167 0
168 0
169 0
170 0
171 0
172 0
173 0
174 0
175 0
176 0
177 0
178 0
179 0
180 0
181 0
182 0
183 0
184 0
185 0
186 0
187 0
188 0
189 0
190 0
191 0
192 0
193 0
194 0
195 0
196 0
197 0
198 0
199 0
200 0
201 0
202 0
203 0
204 0
205 0
206 0
207 0
208 0
209 0
-210 0
211 0
212 0
213 0
214 0
215 0
216 0
217 0
218 0
219 0
-220 0
221 0
222 0
223 0
224 0
225 0
226 0
227 0
228 0
229 0
230 0
231 0
232 0
233 0
234 0
235 0
236 0
237 0
238 0
239 0
240 0
241 0
242 0
243 0
244 0
245 0
246 0
247 0
-248 0
249 0
250 0
251 0
252 0
253 0
254 0
255 0
256 0
257 0
258 0
259 0
260 0
261 0
262 0
263 0
264 0
265 0
266 0
267 0
268 0
269 0
270 0
271 0
272 0
273 0
274 0
275 0
276 0
277 0
278 0
279 0
280 0
281 0
282 0
283 0
284 0
285 0
286 0
287 0
288 0
289 0
290 0
291 0
292 0
293 0
294 0
295 0
296 0
297 0
298 0
299 0
300 0
301 0
302 0
303 0
304 0
305 0
306 0
307 0
308 0
-309 0
-310 0
-311 0
-312 0
-313 0
-314 0
-315 0
-316 0
-317 0
-318 0
-319 0
-320 0
-321 0
-322 0
-323 0
-324 0
-325 0
-326 0
-327 0
-328 0
-329 0
-330 0
-331 0
-332 0
-333 0
-334 0
-335 0
-336 0
-337 0
-338 0
-339 0
-340 0
-341 0
-342 0
-343 0
-344 0
-345 0
-346 0
-347 0
-348 0
-349 0
-350 0
-351 0
-352 0
-353 0
-354 0
-355 0
-356 0
-357 0
-358 0
-359 0
-360 0
-361 0
-362 0
-363 0
-364 0
-365 0
-366 0
-367 0
-368 0
-369 0
-370 0
-371 0
-372 0
-373 0
-374 0
-375 0
-376 0
-377 0
-378 0
-379 0
-380 0
-381 0
-382 0
-383 0
-384 0
-385 0
-386 0
-387 0
-388 0
-389 0
-390 0
-391 0
-392 0
-393 0
-398 0
-399 0
-400 0
-401 0
-403 0
-404 0
-405 0
-406 0
-407 0
-408 0
-409 0
-410 0
-411 0
-412 0
-413 0
-414 0
-416 0
-417 0
-418 0
-419 0
-420 0
-421 0
-422 0
-423 0
-424 0
-425 0
-426 0
-427 0
-428 0
-429 0
-430 0
-431 0
-432 0
-433 0
-434 0
-435 0
-436 0
-437 0
-438 0
-439 0
-440 0
-441 0
-442 0
-443 0
-444 0
-445 0
-446 0
-447 0
-448 0
-449 0
-450 0
-451 0
-452 0
-453 0
-454 0
-455 0
-456 0
-457 0
-458 0
-459 0
-460 0
-461 0
462 0
-463 0
-464 0
-465 0
-466 0
-467 0
-468 0
-469 0
-470 0
-471 0
-472 0
-473 0
-474 0
-475 0
-476 0
-477 0
-478 0
-479 0
-480 0
-481 0
-482 0
-483 0
-484 0
-485 0
-486 0
-487 0
-488 0
-489 0
-490 0
-491 0
-492 0
-493 0
-494 0
-495 0
-496 0
-497 0
-498 0
-499 0
-500 0
-501 0
-502 0
-503 0
-504 0
-505 0
-506 0
-507 0
-508 0
-509 0
-510 0
-511 0
-512 0
-513 0
-514 0
-515 0
-516 0
-517 0
-518 0
-519 0
-520 0
-521 0
-522 0
-523 0
-524 0
525 0
-526 0
-527 0
-528 0
-529 0
-530 0
-531 0
-532 0
-533 0
-534 0
-535 0
-536 0
-537 0
-538 0
-539 0
-540 0
-541 0
-542 0
-543 0
-544 0
-545 0
-546 0
-547 0
-548 0
-549 0
-550 0
-551 0
-552 0
553 0
-554 0
-555 0
-556 0
-557 0
-558 0
-559 0
-560 0
-561 0
-562 0
-563 0
-564 0
-565 0
-566 0
-567 0
-568 0
-569 0
-570 0
-571 0
-572 0
-573 0
-574 0
-575 0
-576 0
-577 0
-578 0
-579 0
-580 0
-581 0
-582 0
-583 0
-584 0
-585 0
-586 0
-587 0
-588 0
-589 0
-590 0
-591 0
-592 0
-593 0
-594 0
-595 0
-596 0
-597 0
-598 0
-599 0
-600 0
-601 0
-602 0
-603 0
-604 0
-605 0
-606 0
-607 0
-608 0
-609 0
-610 0
-611 0
-612 0
-613 0
614 0
615 0
616 0
-617 0
621 0
-622 0
-626 0
630 0
-631 0
637 0
638 0
639 0
640 0
642 0
688 0
689 0
698 0
706 0
714 0
-737 0
738 0
739 0
-740 0
741 0
742 0
-743 0
744 0
-754 0
812 0
867 0
877 0
878 0
879 0
880 0
881 0
882 0
883 0
884 0
885 0
-886 0
887 0
888 0
889 0
890 0
891 0
892 0
893 0
894 0
895 0
896 0
897 0
898 0
899 0
900 0
901 0
902 0
903 0
904 0
905 0
906 0
907 0
908 0
909 0
910 0
911 0
912 0
913 0
914 0
915 0
916 0
917 0
918 0
919 0
920 0
921 0
922 0
923 0
924 0
925 0
926 0
927 0
928 0
929 0
930 0
931 0
932 0
933 0
934 0
935 0
936 0
937 0
938 0
939 0
940 0
941 0
942 0
943 0
944 0
945 0
946 0
947 0
948 0
949 0
950 0
951 0
952 0
953 0
954 0
955 0
956 0
957 0
958 0
959 0
960 0
961 0
962 0
963 0
964 0
965 0
966 0
967 0
968 0
969 0
970 0
971 0
972 0
973 0
974 0
975 0
976 0
977 0
978 0
979 0
980 0
981 0
982 0
983 0
984 0
985 0
986 0
987 0
988 0
989 0
990 0
991 0
992 0
993 0
994 0
995 0
996 0
997 0
998 0
999 0
1000 0
1001 0
1002 0
1003 0
1004 0
1005 0
1006 0
1007 0
1008 0
1009 0
1010 0
1011 0
1012 0
1013 0
1014 0
1015 0
1038 0
1039 0
1040 0
1041 0
1042 0
1043 0
1044 0
1045 0
1046 0
1047 0
1048 0
1049 0
1050 0
1051 0
1053 0
1054 0
1055 0
1056 0
1057 0
1058 0
1059 0
1060 0
1061 0
1062 0
1063 0
1064 0
1065 0
1066 0
1068 0
1069 0
1070 0
1071 0
1073 0
1074 0
1075 0
1076 0
1077 0
1078 0
1079 0
1080 0
1082 0
1083 0
1084 0
1085 0
1086 0
1087 0
1088 0
1090 0
1091 0
1092 0
1093 0
1188 0
1217 0
1246 0
1275 0
1304 0
1333 0
1362 0
1391 0
-1464 0
1465 0
1466 0
1467 0
1468 0
1470 0
1471 0
1472 0
1473 0
1474 0
1475 0
1476 0
1477 0
1478 0
1479 0
1480 0
1481 0
1482 0
1483 0
1484 0
1485 0
1486 0
1487 0
1488 0
1489 0
1490 0
1491 0
1492 0
1493 0
1494 0
1495 0
1496 0
1497 0
1498 0
1499 0
1500 0
1501 0
1502 0
1503 0
1504 0
1505 0
1506 0
1507 0
1508 0
1509 0
1510 0
1511 0
1512 0
1513 0
1514 0
1515 0
1516 0
1517 0
1518 0
1519 0
1520 0
1521 0
1522 0
1523 0
1524 0
1525 0
1526 0
-1527 0
1528 0
1529 0
1530 0
1531 0
1532 0
1533 0
1534 0
1535 0
1536 0
1537 0
1538 0
1539 0
1540 0
1541 0
1542 0
1543 0
1544 0
1545 0
1546 0
1547 0
1548 0
1549 0
1550 0
1551 0
1552 0
1553 0
1554 0
-1555 0
1556 0
1557 0
1558 0
1559 0
1560 0
1561 0
1562 0
1563 0
1564 0
1565 0
1566 0
1567 0
1568 0
1569 0
1570 0
1571 0
1572 0
1573 0
2387 0
-2388 0
-2389 0
-2390 0
-2391 0
-2392 0
-2393 0
-2394 0
-2395 0
-2396 0
-2397 0
-2398 0
-2399 0
-2400 0
-2401 0
-2402 0
-2403 0
-2404 0
-2405 0
-2406 0
-2407 0
-2408 0
-2409 0
-2410 0
-2411 0
-2412 0
-2413 0
-2414 0
-2415 0
-2416 0
-2417 0
-2418 0
-2419 0
-2420 0
-2421 0
-2422 0
-2423 0
-2424 0
-2425 0
-2426 0
-2427 0
-2428 0
-2429 0
-2430 0
-2431 0
-2432 0
-2433 0
-2434 0
-2435 0
-2436 0
-2437 0
-2438 0
-2439 0
-2440 0
-2441 0
-2442 0
-2443 0
-2444 0
-2445 0
-2446 0
-2447 0
-2448 0
-2449 0
-2450 0
-2451 0
-2452 0
-2453 0
-2454 0
-2455 0
-2456 0
-2457 0
-2458 0
-2459 0
-2460 0
-2461 0
-2462 0
-2463 0
-2464 0
-2465 0
-2466 0
-2467 0
-2468 0
-2469 0
-2470 0
-2471 0
-2472 0
-2477 0
-2478 0
-2479 0
-2480 0
-2482 0
-2483 0
-2484 0
-2485 0
-2486 0
-2487 0
-2488 0
-2489 0
-2490 0
-2491 0
-2492 0
-2493 0
-2495 0
-2496 0
-2497 0
-2498 0
-2499 0
-2500 0
-2501 0
-2502 0
-2503 0
-2504 0
-2505 0
-2506 0
-2507 0
-2508 0
-2509 0
-2510 0
-2511 0
-2512 0
-2513 0
-2514 0
-2515 0
-2516 0
-2517 0
-2518 0
-2519 0
-2520 0
-2521 0
-2522 0
-2523 0
-2524 0
-2525 0
-2526 0
-2527 0
-2528 0
-2529 0
-2530 0
-2531 0
-2532 0
-2533 0
-2534 0
-2535 0
-2536 0
-2537 0
-2538 0
-2539 0
-2540 0
-2541 0
-2542 0
-2543 0
-2544 0
-2545 0
-2546 0
-2547 0
-2548 0
-2549 0
-2550 0
-2551 0
-2552 0
-2553 0
-2554 0
-2555 0
-2556 0
-2557 0
-2558 0
-2559 0
-2560 0
-2561 0
-2562 0
-2563 0
-2564 0
-2565 0
-2566 0
-2567 0
-2568 0
-2569 0
-2570 0
-2571 0
-2572 0
-2573 0
-2574 0
-2575 0
-2576 0
-2577 0
-2578 0
-2579 0
-2580 0
-2581 0
-2582 0
-2583 0
-2584 0
-2585 0
-2586 0
-2587 0
-2588 0
-2589 0
-2590 0
-2591 0
-2592 0
-2593 0
-2594 0
-2595 0
-2596 0
-2597 0
-2598 0
-2599 0
-2600 0
-2601 0
-2602 0
-2603 0
-2604 0
-2605 0
-2606 0
-2607 0
-2608 0
-2609 0
-2610 0
-2611 0
-2612 0
-2613 0
-2614 0
-2615 0
-2616 0
-2617 0
-2618 0
-2619 0
-2620 0
-2621 0
-2622 0
-2623 0
-2624 0
-2625 0
-2626 0
-2627 0
-2628 0
-2629 0
-2630 0
-2631 0
-2632 0
-2633 0
-2634 0
-2635 0
-2636 0
-2637 0
-2638 0
-2639 0
-2640 0
-2641 0
-2642 0
-2643 0
-2644 0
-2645 0
-2646 0
-2647 0
-2648 0
-2649 0
-2650 0
-2651 0
-2652 0
-2653 0
-2654 0
-2655 0
-2656 0
-2657 0
-2658 0
-2659 0
-2660 0
-2661 0
-2662 0
-2663 0
-2664 0
-2665 0
-2666 0
-2667 0
-2668 0
-2669 0
-2670 0
-2671 0
-2672 0
-2673 0
-2674 0
-2675 0
-2676 0
-2677 0
-2678 0
-2679 0
-2680 0
-2681 0
-2682 0
-2683 0
-2684 0
-2685 0
-2686 0
-2687 0
-2688 0
-2689 0
-2690 0
-2691 0
-2692 0
-2074 0
-2075 0
-2076 0
-2077 0
-2078 0
-2079 0
-2080 0
-2081 0
-2082 0
-2083 0
-2084 0
-2085 0
-2086 0
-2087 0
-2088 0
-2089 0
-2090 0
-2091 0
-2092 0
-2093 0
-2094 0
-2095 0
-2096 0
-2097 0
-2098 0
-2099 0
-2100 0
-2101 0
-2102 0
-2103 0
-2104 0
-2105 0
-2106 0
-2107 0
-2108 0
-2109 0
-2110 0
-2111 0
-2112 0
-2113 0
-2114 0
-2115 0
-2116 0
-2117 0
-2118 0
-2119 0
-2120 0
-2121 0
-2122 0
-2123 0
-2124 0
-2125 0
-2126 0
-2127 0
-2128 0
-2129 0
-2130 0
-2131 0
-2132 0
-2133 0
-2134 0
-2135 0
-2136 0
-2137 0
-2138 0
-2139 0
-2140 0
-2141 0
-2142 0
-2143 0
-2144 0
-2145 0
-2146 0
-2147 0
-2148 0
-2149 0
-2150 0
-2151 0
-2152 0
-2153 0
-2154 0
-2155 0
-2156 0
-2157 0
-2158 0
-2159 0
-2160 0
-2161 0
-2162 0
-2163 0
-2164 0
-2165 0
-2166 0
-2167 0
-2168 0
-2169 0
-2170 0
-2171 0
-2172 0
-2173 0
-2174 0
-2175 0
-2176 0
-2177 0
-2178 0
-2179 0
-2180 0
-2181 0
-2182 0
-2183 0
-2184 0
-2185 0
-2186 0
-2187 0
-2188 0
-2189 0
-2190 0
-2191 0
-2192 0
-2193 0
-2194 0
-2195 0
-2196 0
-2197 0
-2198 0
-2199 0
-2200 0
-2201 0
-2202 0
-2203 0
-2204 0
-2205 0
-2206 0
-2207 0
-2208 0
-2209 0
-2210 0
-2211 0
-2212 0
-2213 0
-2214 0
-2215 0
-2216 0
-2217 0
-2218 0
-2219 0
-2220 0
-2221 0
-2222 0
-2223 0
-2224 0
-2225 0
-2226 0
-2227 0
-2228 0
-2229 0
-2230 0
-2231 0
-2232 0
-2233 0
-2234 0
-2235 0
-2236 0
-2237 0
-2238 0
-2239 0
-1665 0
-2240 0
-2241 0
-1910 0
-1911 0
-1829 0
-1830 0
-1831 0
-1832 0
-1833 0
-1834 0
-1835 0
-1836 0
-1837 0
-1838 0
-1839 0
-1840 0
-1841 0
-1842 0
-1843 0
-1844 0
-1845 0
-1846 0
-1847 0
-2242 0
-2243 0
-1848 0
-1849 0
-2244 0
-2245 0
-1850 0
-1979 0
-1980 0
-1981 0
-1982 0
-1983 0
-1984 0
-1985 0
-1986 0
-1987 0
-1988 0
-1989 0
-1990 0
-1991 0
-1666 0
-1992 0
-1993 0
-2246 0
-1994 0
-2247 0
-1995 0
-1996 0
-2248 0
-1997 0
-2249 0
-1998 0
-1999 0
-2000 0
-1619 0
-1620 0
-1621 0
-1622 0
-1623 0
-1624 0
-1625 0
-1626 0
-2250 0
-1627 0
-1628 0
-1629 0
-1630 0
-1631 0
-2251 0
-1632 0
-1633 0
-2252 0
-1634 0
-1635 0
-2253 0
-1636 0
-2254 0
-1637 0
-1638 0
-1639 0
-1640 0
-1668 0
-1669 0
-1670 0
-1671 0
-1672 0
-1673 0
-1674 0
-1675 0
-1676 0
-2255 0
-1677 0
-1667 0
-1678 0
-1679 0
-2256 0
-1680 0
-2257 0
-1681 0
-1682 0
-1683 0
-2258 0
-1684 0
-2259 0
-1685 0
-1686 0
-1687 0
-1688 0
-1689 0
-1641 0
-1642 0
-1643 0
-1644 0
-1645 0
-1646 0
-1647 0
-1648 0
-1649 0
-1650 0
-1651 0
-1652 0
-1653 0
-2260 0
-1654 0
-2261 0
-1655 0
-1656 0
-1657 0
-2262 0
-2263 0
-1658 0
-1659 0
-1660 0
-1661 0
-1662 0
-1663 0
-1664 0
-1574 0
-1575 0
-1576 0
-2264 0
-1577 0
-1907 0
-1578 0
-1579 0
-1580 0
-1581 0
-1582 0
-1583 0
-2265 0
-1584 0
-2266 0
-1585 0
-1586 0
-2267 0
-2268 0
-1587 0
-1588 0
-1589 0
-1590 0
-1591 0
-1592 0
-1593 0
-1594 0
-2269 0
-1595 0
-2270 0
-1596 0
-1597 0
-1598 0
-2271 0
-1599 0
-1600 0
-1601 0
-1602 0
-1603 0
-1604 0
-1605 0
-1606 0
-1607 0
-1608 0
-1609 0
-1610 0
-1611 0
-1612 0
-2272 0
-1613 0
-1614 0
-1615 0
-1616 0
-2273 0
-1617 0
-2274 0
-1618 0
-2275 0
-1912 0
-2276 0
-1913 0
-1914 0
-1915 0
-1916 0
-1917 0
-1918 0
-1919 0
-1920 0
-1921 0
-1922 0
-1923 0
-1924 0
-1925 0
-1926 0
-1927 0
-1928 0
-1929 0
-1930 0
-1931 0
-1932 0
-1933 0
-1934 0
-1935 0
-1936 0
-1937 0
-1938 0
-1939 0
-1940 0
-1941 0
-1908 0
-1942 0
-1943 0
-1944 0
-1945 0
-1946 0
-1947 0
-1948 0
-1949 0
-1950 0
-1951 0
-1952 0
-1953 0
-1954 0
-1955 0
-1956 0
-1957 0
-1958 0
-1959 0
-1960 0
-1961 0
-1962 0
-1963 0
-1964 0
-1965 0
-1966 0
-1967 0
-1968 0
-1969 0
-1970 0
-1971 0
-1972 0
-1973 0
-1974 0
-1975 0
-1976 0
-1977 0
-1978 0
-2001 0
-2002 0
-1909 0
-2003 0
-2004 0
-2005 0
-2006 0
-2007 0
-2008 0
-2009 0
-2010 0
-2011 0
-2012 0
-2013 0
-2014 0
-2015 0
-2016 0
-2017 0
-2018 0
-2019 0
-2020 0
-2021 0
-2022 0
-2023 0
-2024 0
-2025 0
-2026 0
-2027 0
-2028 0
-2029 0
-2030 0
-2031 0
-2032 0
-2033 0
-2034 0
-2035 0
-2036 0
-2037 0
-2038 0
-2039 0
-2040 0
-2041 0
-2042 0
-2043 0
-2044 0
-2045 0
-2046 0
-2047 0
-2048 0
-2049 0
-2050 0
-2051 0
-2052 0
-2053 0
-2054 0
-2055 0
-2056 0
-2057 0
-2058 0
-2059 0
-2060 0
-2061 0
-2062 0
-2063 0
-2064 0
-2065 0
-2066 0
-2067 0
-2068 0
-2069 0
-2070 0
-2071 0
-2072 0
-2073 0

